## CaTiO3 or perovskite

# general remarks:
#  - geometry < https://materialsproject.org/materials/mp-149/#
#  - pseudopotentials < http://www.pseudo-dojo.org/

# Ground state relaxation

ndtset  1 

# # algorithm
# optcell1  2     # positions + volume
# ionmov1   2     # BFGS algorithm
# ntime1    15
# dilatmx1  1.05  # memory expansion
# ecutsm1   0.5   # avoid abrupt cut-off changes
# tolmxf1   1e-8


# GROUND STATE calculation

kptopt1  1              # full symmetry
tolvrs1  1e-10          # for 2ndP => accuracy on V

#### COMMON INPUT ####

# SCANNING
ecut 16
ngkpt *4

# unit cell
acell      7.3076524753E+00  7.3076524739E+00  7.3076524753E+00 Bohr
rprim      7.0710678127E-01  7.0710678110E-01 -5.1354079751E-11
           0.0000000000E+00  7.0710678119E-01  7.0710678119E-01
           7.0710678127E-01 -5.1354065771E-11  7.0710678110E-01

# acell    *5.46954486 Angstr
# rprim    0.5  0.5  0.0
#          0.0  0.5  0.5
#          0.5  0.0  0.5

# atom types
ntypat   1
znucl    14

# atoms
natom    2
typat    *1
xred
  # Si
  # 0.0000   0.0000   0.0000
  # 1/4      1/4      1/4
      -5.0000000192E-03  5.0000000192E-03 -5.0000000192E-03
       2.4500000002E-01  2.5499999998E-01  2.4500000002E-01

# valence bands
# -> given by (sum_atoms zion) / 2
nband    4

# k-point lattice
nshiftk 1
shiftk
  0.0 0.0 0.0

# scf procedure
nstep   0
diemac  12
prtvol -1



