## CaTiO3 or perovskite

# general remarks:
#  - geometry < https://materialsproject.org/materials/mp-4019/#
#  - pseudopotentials < https://www.abinit.org/psp-tables

# Single point calculation

# cell
acell    5.404 5.513 7.697

# atom types
ntypat   3
znucl    20 22 8

# atoms
natom    20
typat    4*1 4*2 12*3 
xred
  # Ca
  0.0085   0.9552   0.75
  0.4915   0.4552   0.75
  0.5085   0.5448   0.25
  0.9915   0.0448   0.25
  # Ti
  0        0.5      0
  0        0.5      0.5
  0.5      0        0
  0.5      0        0.5
  # O
  0.0781   0.4794   0.25
  0.2075   0.2081   0.5407
  0.2075   0.2081   0.9593
  0.2925   0.7081   0.9593
  0.2925   0.7081   0.5407
  0.4219   0.9794   0.25
  0.5781   0.0206   0.75
  0.7075   0.2919   0.4593
  0.7075   0.2919   0.0407
  0.7925   0.7919   0.0407
  0.7925   0.7919   0.4593
  0.9219   0.5206   0.75

# valence bands
# given by (sum_atoms zion) / 2
nband    80

# parameters that needs to be converged
ngkpt    *4
ixc      1              # LDA

# algorithm
toldfe   1.0d-10

# SCANNING:
ecut 120
ngkpt \*4
